\ This file has been generated by DOcplex
\ ENCODING=ISO-8859-1
\Problem name: random_problem.lp

Minimize
 obj: - 0.013399075384 x0 - 0.006699537692 x1 - 0.003349768846 x2
      - 0.003679989212 x3 - 0.001839994606 x4 - 0.000919997303 x5 + [
      0.004119913712 x0^2 + 0.004119913712 x0*x1 + 0.002059956856 x0*x2
      + 0.002546201396 x0*x3 + 0.001273100698 x0*x4 + 0.000636550349 x0*x5
      + 0.001029978428 x1^2 + 0.001029978428 x1*x2 + 0.001273100698 x1*x3
      + 0.000636550349 x1*x4 + 0.000318275174 x1*x5 + 0.000257494607 x2^2
      + 0.000636550349 x2*x3 + 0.000318275174 x2*x4 + 0.000159137587 x2*x5
      + 0.002974623524 x3^2 + 0.002974623524 x3*x4 + 0.001487311762 x3*x5
      + 0.000743655881 x4^2 + 0.000743655881 x4*x5 + 0.000185913970 x5^2 ]/2
Subject To
 c0: 4 x0 + 2 x1 + x2 + 4 x3 + 2 x4 + x5 = 7

Bounds
 0 <= x0 <= 1
 0 <= x1 <= 1
 0 <= x2 <= 1
 0 <= x3 <= 1
 0 <= x4 <= 1
 0 <= x5 <= 1

Binaries
 x0 x1 x2 x3 x4 x5
End
